n_res = 4;
rcap = [21, 13, 79, 65];
rtype = [1, 1, 2, 2];
n_tasks = 12;
modes = [ {1, 2, 3}, {4, 5, 6}, {7, 8, 9}, {10, 11, 12}, {13, 14, 15}, {16, 17, 18}, {19, 20, 21}, {22, 23, 24}, {25, 26, 27}, {28, 29, 30}, {31, 32, 33}, {34, 35, 36} ];
succ = [ {4, 7, 8}, {5, 6, 8}, {6, 8, 10}, {9, 10, 11}, {7, 11}, {11, 12}, {9, 10}, {9}, {12}, {}, {}, {} ];
n_opt = 36;
dur = [4, 9, 10, 2, 9, 10, 4, 8, 9, 1, 5, 7, 4, 8, 9, 2, 5, 6, 1, 1, 4, 3, 3, 5, 2, 4, 4, 2, 6, 7, 4, 5, 5, 3, 4, 4];
rreq = [|  6,  0,  0,  6,  3,  0,  8,  6,  5,  0,  3,  1,  0,  7,  0,  0,  2,  0, 10,  0,  9,  7,  4,  2,  0,  0,  0,  2,  2,  2,  8,  3,  4,  0,  0,  0
        |  0,  8,  6,  0,  0,  3,  0,  0,  0,  2,  0,  0,  4,  0,  3,  9,  0,  8,  0,  5,  0,  0,  0,  0,  3,  3,  3,  0,  0,  0,  0,  0,  0,  4,  3,  2
        |  8,  7,  6,  5,  3,  0,  9,  8,  0,  0,  6,  0,  8,  0,  8,  7,  6,  0,  0,  0,  8,  8,  0,  0,  0,  0,  6,  0,  5,  2,  0,  0,  5,  4,  4,  0
        |  0,  0,  0,  0,  0,  3,  0,  0,  9,  5,  0,  5,  0,  2,  0,  0,  0,  5, 10,  9,  0,  0,  7,  5,  4,  3,  0,  5,  0,  0,  6,  4,  0,  0,  0,  9 |];
